TCS_Benchmarks/redos_fix/corpus1_output_distinct_1508_1507_16_0.txt
([^\s]*)(\s*)
([^\s]*)(\s*PUBLIC\s*"(.*)")(\s*)